NAME Sudoku Problem
ROWS
 N  OBJ
 E  R0      
 E  R1      
 E  R2      
 E  R3      
 E  R4      
 E  R5      
 E  R6      
 E  R7      
 E  R8      
 E  R9      
 E  R10     
 E  R11     
 E  R12     
 E  R13     
 E  R14     
 E  R15     
 E  R16     
 E  R17     
 E  R18     
 E  R19     
 E  R20     
 E  R21     
 E  R22     
COLUMNS
    MARKER    'MARKER'                 'INTORG'
    x_1_1     R0        1
    x_1_1     R4        1
    x_1_1     R8        1
    x_1_1     R12       1
    x_1_2     R0        1
    x_1_2     R5        1
    x_1_2     R8        1
    x_1_2     R13       1
    x_1_3     R0        1
    x_1_3     R6        1
    x_1_3     R9        1
    x_1_4     R0        1
    x_1_4     R7        1
    x_1_4     R9        1
    x_1_4     R14       1
    x_2_1     R1        1
    x_2_1     R4        1
    x_2_1     R8        1
    x_2_2     R1        1
    x_2_2     R5        1
    x_2_2     R8        1
    x_2_2     R15       1
    x_2_3     R1        1
    x_2_3     R6        1
    x_2_3     R9        1
    x_2_4     R1        1
    x_2_4     R7        1
    x_2_4     R9        1
    x_3_1     R2        1
    x_3_1     R4        1
    x_3_1     R10       1
    x_3_1     R16       1
    x_3_2     R2        1
    x_3_2     R5        1
    x_3_2     R10       1
    x_3_2     R17       1
    x_3_3     R2        1
    x_3_3     R6        1
    x_3_3     R11       1
    x_3_3     R18       1
    x_3_4     R2        1
    x_3_4     R7        1
    x_3_4     R11       1
    x_4_1     R3        1
    x_4_1     R4        1
    x_4_1     R10       1
    x_4_1     R19       1
    x_4_2     R3        1
    x_4_2     R5        1
    x_4_2     R10       1
    x_4_2     R20       1
    x_4_3     R3        1
    x_4_3     R6        1
    x_4_3     R11       1
    x_4_3     R21       1
    x_4_4     R3        1
    x_4_4     R7        1
    x_4_4     R11       1
    x_4_4     R22       1
    MARKER    'MARKER'                 'INTEND'
RHS
    RHS1      R0        11
    RHS1      R1        11
    RHS1      R2        11
    RHS1      R3        11
    RHS1      R4        11
    RHS1      R5        11
    RHS1      R6        11
    RHS1      R7        11
    RHS1      R8        11
    RHS1      R9        11
    RHS1      R10       11
    RHS1      R11       11
    RHS1      R12       3
    RHS1      R14       1
    RHS1      R15       1
    RHS1      R16       1
    RHS1      R17       7
    RHS1      R20       3
    RHS1      R21       1
    RHS1      R22       7
BOUNDS
 LI BND1      x_1_1     0
 LI BND1      x_1_2     0
 LI BND1      x_1_3     0
 LI BND1      x_1_4     0
 LI BND1      x_2_1     0
 LI BND1      x_2_2     0
 LI BND1      x_2_3     0
 LI BND1      x_2_4     0
 LI BND1      x_3_1     0
 LI BND1      x_3_2     0
 LI BND1      x_3_3     0
 LI BND1      x_3_4     0
 LI BND1      x_4_1     0
 LI BND1      x_4_2     0
 LI BND1      x_4_3     0
 LI BND1      x_4_4     0
ENDATA
